branch-and-cut/resultados/B/b10.sol
86
24
71 50
23 46
56 52
7 71
23 58
18 13
1 27
39 29
66 59
5 18
45 36
23 45
46 28
9 46
1 56
27 75
23 29
2 58
66 18
71 60
7 66
27 44
7 75
45 59
